50 900 11
1 562
86 456
100 351
27 592
56 695
51 363
0 286
72 39
26 518
19 576
97 489
38 488
67 737
29 895
28 889
49 426
51 699
0 603
76 443
17 916
6 187
75 61
55 130
28 647
37 826
72 806
59 720
0 192
60 788
94 381
65 472
68 722
50 979
24 306
52 950
31 236
55 601
70 618
88 787
68 667
15 51
69 810
44 469
63 32
27 998
17 716
88 823
3 101
61 805
75 535
